5
8
20
1 1.3 1.55 1.75 2.1
32 47 23 34 36 39 34 10 33 46 40 47 7 6 35 20 46 15 46 32 47 28 13 21 40 27 29 20 26 37 44 15 31 44 39 28 16 26 27 13 37 7 31 41 34 37 37 37 30 22 36 24 42 24 45 34 23 5 43 9 24 18 49 44 24 27 26 16 18 34 14 45 46 21 11 48 49 34 11 37 39 38 34 46 19 47 39 29 47 46 49 27 26 36 20 38 6 24 22 41 10 14 24 31 27 8 29 31 16 47 8 13 45 48 41 31 38 19 20 37 26 40 5 16 37 11 33 16 18 41 35 40 13 47 44 15 30 34 48 39 21 25 48 33 21 32 43 33 10 31 31 27 6 27 29 7 14 30 24 5 